141 328 453 756 850 862 1299 1315 1525 2005 2154 2314 2401 2599 2711 2755 2768 2809 2930 2972 3030 3514 3698 3719 3779 3879 4861 5006 5029 5056 5418 5703 5947 6015 6666 6706 7347 7743 8020 8289 8402 8463 8489 8491 8554 8928 9050 9817 

141 328 453 756 850 862 1299 1315 2005 2154 2314 2401 2599 2711 2755 2768 2809 2930 2972 3030 3514 3698 3719 3779 3879 4386 4861 5006 5056 5233 5259 5418 5703 5947 6015 6666 7347 7743 8020 8289 8402 8463 8489 8491 8554 8928 9050 9817 

141 328 453 756 850 862 1299 1315 2005 2154 2314 2401 2599 2711 2755 2768 2809 2898 2930 3030 3514 3698 3719 3779 3879 4386 4861 5006 5056 5233 5259 5418 5703 5947 6015 6666 7347 7743 8020 8289 8402 8463 8489 8491 8554 8928 9050 9817 

141 328 453 756 850 862 1299 1315 2005 2154 2314 2401 2599 2711 2768 2809 2930 2972 3030 3514 3698 3719 3779 3879 4386 4861 5006 5056 5233 5259 5418 5703 5947 6015 6666 7347 7743 8020 8212 8289 8402 8463 8489 8491 8554 8928 9050 9817 

141 328 453 756 850 862 1299 1315 2005 2154 2314 2401 2599 2711 2768 2809 2898 2930 3030 3514 3698 3719 3779 3879 4386 4861 5006 5056 5233 5259 5418 5703 5947 6015 6666 7347 7743 8020 8212 8289 8402 8463 8489 8491 8554 8928 9050 9817 

328 453 756 850 862 1299 1315 1525 2004 2005 2154 2314 2401 2599 2711 2809 2930 2972 3030 3514 3698 3719 3779 3879 4386 4861 5006 5056 5233 5418 5703 5947 6666 6706 7347 7743 8020 8212 8289 8402 8463 8489 8491 8554 8725 8928 9050 9817 

141 328 453 756 862 1299 1315 2005 2154 2314 2401 2599 2711 2755 2768 2809 2898 2930 3030 3514 3698 3719 3779 3879 4386 4861 5006 5056 5233 5259 5418 5703 5947 6015 6666 7347 7743 8020 8212 8289 8402 8463 8489 8491 8554 8928 9050 9817 

141 328 453 756 850 862 1299 1315 1525 2005 2154 2314 2401 2599 2711 2809 2930 2972 3030 3514 3698 3719 3779 3879 4386 4861 5006 5056 5233 5418 5703 5947 6666 6706 7347 7743 8020 8212 8289 8402 8463 8489 8491 8554 8725 8928 9050 9817 

141 328 453 756 862 1299 1315 1525 2005 2154 2314 2401 2599 2711 2768 2809 2930 2972 3030 3514 3698 3719 3779 3879 4861 5006 5056 5233 5418 5703 5947 6015 6260 6666 6706 7347 7743 8020 8212 8289 8402 8463 8489 8491 8554 8928 9050 9817 

328 453 756 850 862 1299 1315 2004 2005 2154 2314 2401 2599 2711 2809 2930 2972 3030 3514 3698 3719 3779 3879 4386 4861 5006 5056 5233 5259 5418 5703 5947 6666 6706 7347 7743 8020 8212 8289 8402 8463 8489 8491 8554 8725 8928 9050 9817 

141 328 453 756 850 862 1299 1315 2005 2154 2314 2401 2599 2711 2809 2930 2972 3020 3030 3514 3698 3719 3779 3879 4386 4861 5006 5056 5233 5418 5703 5947 6666 6706 7347 7743 8020 8212 8289 8402 8463 8489 8491 8554 8725 8928 9050 9817 

141 328 453 756 862 1299 1315 2005 2154 2314 2401 2599 2711 2755 2768 2809 2930 2972 3030 3514 3698 3719 3779 3879 4386 4861 5006 5056 5233 5259 5418 5703 5947 6015 6666 7347 7743 8020 8212 8289 8402 8463 8489 8491 8554 8928 9050 9817 

141 328 453 756 850 862 1299 1315 1525 2005 2106 2154 2314 2401 2599 2711 2755 2768 2809 2898 3030 3514 3698 3719 3779 3879 4861 5006 5029 5056 5418 5703 5947 6015 6666 6706 7347 7743 8020 8289 8402 8489 8491 8554 8928 9050 9250 9817 

141 328 453 756 850 862 1299 1315 1525 2005 2154 2314 2401 2599 2711 2755 2768 2809 2898 2918 2930 3030 3514 3698 3719 3779 3879 4386 5006 5056 5233 5259 5418 5703 5947 6015 6666 7347 7743 8020 8212 8289 8402 8491 8554 8928 9050 9817 

141 328 453 756 850 862 1299 1315 2005 2154 2314 2401 2599 2711 2809 2930 2972 3020 3030 3514 3698 3719 3779 3879 4386 4861 4979 5006 5056 5233 5418 5703 5947 6666 7347 7743 7760 8020 8212 8289 8463 8489 8491 8554 8725 8928 9050 9817 

141 328 453 756 850 862 1299 1315 1525 2005 2154 2314 2401 2599 2711 2755 2809 2930 2972 3030 3514 3698 3719 3779 3879 4386 4861 5006 5056 5233 5418 5703 5947 6015 6666 7347 7743 8020 8212 8289 8402 8463 8489 8491 8554 8928 9050 9817 

141 328 453 756 850 862 1299 1315 1525 2005 2154 2314 2401 2599 2711 2809 2930 2972 3020 3030 3514 3698 3719 3779 3879 4861 5006 5056 5233 5418 5703 5947 6666 6706 7347 7743 8020 8212 8289 8402 8463 8489 8491 8554 8725 8928 9050 9817 

141 328 453 756 850 862 1299 1315 2005 2154 2314 2401 2599 2711 2755 2809 2930 2972 3030 3514 3698 3719 3779 3879 4386 4861 5006 5056 5233 5259 5418 5703 5947 6015 6666 7347 7743 8020 8212 8289 8402 8463 8489 8491 8554 8928 9050 9817 

141 328 453 756 850 862 1299 1315 2005 2154 2314 2401 2599 2711 2755 2809 2898 2930 3030 3514 3698 3719 3779 3879 4386 4861 5006 5056 5233 5259 5418 5703 5947 6015 6666 7347 7743 8020 8212 8289 8402 8463 8489 8491 8554 8928 9050 9817 

141 328 453 756 850 862 1299 1315 1525 2004 2005 2154 2314 2401 2599 2711 2809 2930 2972 3020 3030 3514 3698 3719 3779 3879 4861 5006 5056 5233 5418 5703 5947 6666 6706 7347 7743 8020 8212 8289 8463 8489 8491 8554 8725 8928 9050 9817 

141 328 453 756 850 862 1299 1315 2005 2154 2314 2401 2599 2711 2755 2768 2809 2898 2930 3030 3514 3698 3719 3779 3879 4386 4861 5006 5056 5233 5259 5418 5703 5947 6015 6666 7347 7743 8020 8212 8289 8402 8463 8491 8554 8928 9050 9817 

328 453 756 850 862 1299 1315 2004 2005 2154 2314 2401 2599 2711 2809 2930 2972 3020 3030 3514 3698 3719 3779 3879 4386 4861 5006 5056 5233 5259 5418 5703 5947 6666 7347 7743 7760 8020 8212 8289 8463 8489 8491 8554 8725 8928 9050 9817 

141 328 453 756 850 862 1299 1315 2004 2005 2154 2314 2401 2599 2711 2809 2930 2972 3020 3030 3514 3698 3719 3779 3879 4386 4861 5006 5056 5233 5418 5703 5947 6666 7347 7743 7760 8020 8212 8289 8463 8489 8491 8554 8725 8928 9050 9817 

141 328 453 756 850 862 1299 1315 2005 2154 2314 2401 2599 2711 2768 2809 2930 2972 3514 3698 3719 3779 3879 4386 4861 5006 5056 5233 5259 5418 5703 5947 6015 6260 6666 7347 7743 8020 8212 8289 8402 8463 8489 8491 8554 8928 9050 9817 

141 328 453 756 850 862 1299 1315 2005 2154 2314 2401 2599 2711 2755 2768 2809 2930 2972 3030 3514 3698 3719 3779 3879 4386 4861 5006 5056 5233 5259 5418 5703 5947 6015 6666 7347 7743 8020 8212 8289 8402 8463 8491 8554 8928 9050 9817 

141 328 453 756 850 862 1299 1315 2005 2154 2314 2401 2599 2711 2755 2809 2898 2930 3030 3514 3698 3719 3779 3879 4386 4861 5006 5056 5233 5259 5418 5703 5947 6666 7347 7743 8020 8212 8289 8402 8463 8489 8491 8554 8725 8928 9050 9817 

141 328 453 756 850 862 1299 1315 1525 2005 2154 2314 2401 2599 2711 2755 2809 2930 2972 3030 3514 3698 3719 3779 3879 4386 4861 5006 5056 5233 5418 5703 5947 6666 7347 7743 8020 8212 8289 8402 8463 8489 8491 8554 8725 8928 9050 9817 

141 328 453 756 850 862 1299 1315 2005 2154 2314 2401 2599 2711 2755 2809 2898 2918 2930 3030 3514 3698 3719 3779 3879 4386 4861 5006 5056 5233 5259 5418 5703 5947 6015 6666 7347 7743 8020 8212 8289 8402 8489 8491 8554 8928 9050 9817 

141 328 453 756 850 862 1299 1315 2005 2154 2314 2401 2599 2711 2809 2930 2972 3020 3030 3514 3698 3719 3779 3879 4386 4861 4979 5006 5056 5233 5418 5703 5947 6666 7347 7743 8020 8212 8289 8402 8463 8489 8491 8554 8725 8928 9050 9817 

141 328 453 756 850 862 1299 1315 2005 2154 2314 2401 2599 2711 2755 2809 2930 2972 3030 3514 3698 3719 3779 3879 4386 4861 5006 5056 5233 5259 5418 5703 5947 6666 7347 7743 8020 8212 8289 8402 8463 8489 8491 8554 8725 8928 9050 9817 

328 453 756 850 862 1315 2004 2005 2154 2314 2401 2599 2711 2809 2930 2972 3020 3030 3514 3698 3719 3779 3879 4386 4861 4979 5006 5056 5233 5418 5703 5947 6666 6706 7347 7743 7760 8020 8212 8289 8463 8489 8491 8554 8725 8928 9050 9817 

141 328 453 756 850 862 1299 1315 1525 2005 2154 2314 2401 2599 2711 2755 2809 2918 2930 3030 3514 3698 3719 3779 3879 4386 5006 5056 5233 5259 5418 5703 5947 6666 7347 7743 8020 8212 8289 8402 8463 8489 8491 8554 8725 8928 9050 9817 

141 328 756 850 862 1299 1315 1525 2005 2154 2314 2401 2599 2711 2755 2768 2809 2898 2918 2930 3030 3514 3698 3719 3779 3879 5029 5056 5233 5259 5418 5703 6015 6462 6666 7347 7743 8020 8289 8402 8463 8489 8491 8554 8725 8928 9050 9817 

141 328 453 756 850 862 1299 1315 2005 2154 2314 2401 2711 2768 2809 2930 2972 3030 3514 3698 3719 3779 3879 4386 4861 5006 5056 5233 5259 5418 5703 5947 6015 6260 6666 7347 7743 8020 8212 8289 8402 8463 8489 8491 8554 8928 9050 9817 

141 328 453 756 850 862 1299 1315 2005 2154 2314 2401 2599 2711 2768 2809 2930 2972 3030 3514 3698 3719 3779 3879 4386 4861 5006 5056 5233 5259 5418 5703 5947 6015 6260 6666 7347 7743 8020 8212 8289 8402 8463 8489 8491 8554 9050 9817 

141 328 453 756 850 862 1299 1315 2005 2154 2314 2401 2599 2711 2755 2768 2809 2930 2972 3030 3514 3719 3779 3879 4386 4861 5006 5056 5233 5259 5418 5703 5947 6015 6666 7347 7743 8020 8212 8289 8402 8463 8489 8491 8554 8928 9050 9817 

141 328 453 756 850 862 1299 1315 1525 2005 2154 2314 2401 2599 2711 2755 2809 2918 2930 3030 3514 3698 3719 3779 3879 4386 5006 5056 5233 5259 5418 5703 5947 6015 6666 7347 7743 8020 8212 8289 8402 8463 8489 8491 8554 8928 9050 9817 

328 453 756 850 862 1299 1315 1525 2004 2005 2154 2401 2599 2711 2768 2809 2930 2972 3030 3514 3698 3719 3779 3879 4386 4861 5006 5056 5233 5259 5418 5703 5947 6666 7347 7743 8020 8212 8289 8402 8463 8489 8491 8554 8725 8928 9050 9817 

141 328 453 756 850 862 1299 1315 2005 2154 2314 2401 2599 2711 2755 2768 2809 2898 2930 3030 3514 3719 3779 3879 4386 4861 5006 5056 5233 5259 5418 5703 5947 6015 6666 7347 7743 8020 8212 8289 8402 8463 8489 8491 8554 8928 9050 9817 

328 453 756 850 862 1299 1315 1525 2004 2005 2154 2314 2401 2599 2711 2768 2809 2930 2972 3030 3514 3698 3719 3779 3879 4386 4861 5006 5056 5233 5259 5418 5703 6666 6706 7347 7743 8020 8212 8289 8402 8463 8491 8554 8725 8928 9050 9817 

141 328 453 756 850 862 1299 1315 2005 2154 2314 2401 2599 2711 2755 2809 2898 2930 2972 3030 3514 3698 3779 3879 4386 4861 5006 5056 5233 5259 5418 5703 6015 6666 7347 7743 8020 8212 8289 8402 8463 8489 8491 8554 8725 8928 9050 9817 

141 328 453 850 862 1299 1315 2005 2154 2314 2401 2599 2711 2768 2809 2930 2972 3030 3514 3698 3719 3779 3879 4386 4861 5006 5056 5233 5259 5418 5703 5947 6015 6260 6666 7347 7743 8020 8212 8289 8402 8463 8489 8491 8554 8928 9050 9817 

141 328 453 756 850 862 1299 1315 1525 2005 2154 2314 2401 2599 2711 2755 2768 2809 2930 2972 3030 3514 3698 3719 3779 3879 4386 4861 5006 5056 5233 5259 5418 5703 6666 7347 7743 8020 8212 8289 8402 8463 8491 8554 8725 8928 9050 9817 

328 361 453 756 862 1299 1315 1525 2005 2154 2401 2599 2711 2768 2809 2930 2972 3030 3514 3698 3719 3779 3879 4386 4861 5006 5029 5056 5233 5259 5418 5703 5947 6015 6666 7347 7743 8020 8212 8289 8402 8463 8489 8491 8554 8928 9050 9817 

141 328 453 756 850 862 1299 1315 1525 2005 2154 2314 2401 2599 2711 2755 2768 2809 2930 2972 3030 3514 3698 3719 3779 3879 4386 4861 5006 5056 5233 5259 5418 5703 6015 6666 7347 7743 8020 8212 8289 8402 8463 8491 8554 8928 9050 9817 

141 328 756 850 862 1299 1315 1525 2005 2106 2154 2314 2401 2599 2711 2755 2768 2809 2898 2918 2930 3030 3514 3698 3779 3879 4861 5006 5029 5056 5418 5703 6015 6462 6666 6706 7347 7743 8020 8289 8402 8489 8491 8554 8725 8928 9050 9817 

141 328 453 756 850 862 1299 1315 1525 2005 2106 2154 2314 2401 2599 2711 2755 2809 2898 2918 2930 3030 3514 3698 3779 3879 4861 5006 5029 5056 5418 5703 6015 6462 6666 6706 7347 7743 8020 8289 8402 8489 8491 8554 8725 8928 9050 9817 

141 328 756 850 862 1299 1315 1525 2005 2154 2314 2401 2599 2711 2755 2809 2930 2972 3030 3514 3698 3719 3779 3879 4861 5006 5056 5233 5259 5418 5703 5947 6015 6666 7347 7743 8020 8212 8289 8402 8463 8489 8491 8554 8725 8928 9050 9817 

141 328 756 850 862 1299 1315 2005 2154 2314 2401 2599 2711 2755 2809 2898 2930 2972 3030 3514 3698 3779 3879 4386 4861 5006 5056 5233 5259 5418 5703 5947 6015 6666 7347 7743 8020 8212 8289 8402 8463 8489 8491 8554 8725 8928 9050 9817 

141 328 453 756 850 862 1299 1315 1525 2005 2154 2314 2401 2599 2711 2755 2809 2930 2972 3030 3514 3698 3719 3779 3879 4861 5006 5056 5233 5259 5418 5703 6015 6666 7347 7743 8020 8212 8289 8402 8463 8489 8491 8554 8725 8928 9050 9817 

141 328 756 850 862 1299 1315 1525 2005 2154 2314 2401 2599 2711 2755 2809 2918 2930 2972 3030 3514 3698 3719 3779 3879 4861 5006 5056 5233 5259 5418 5947 6015 6666 7347 7743 8020 8212 8289 8402 8463 8489 8491 8554 8725 8928 9050 9817 

141 328 756 850 862 1299 1315 1525 2005 2154 2314 2401 2599 2711 2755 2809 2918 2930 3030 3514 3698 3719 3779 3879 4861 5006 5056 5233 5259 5418 5703 5947 6015 6666 7347 7743 8020 8212 8289 8402 8463 8489 8491 8554 8725 8928 9050 9817 

